
  32    1
  10

   0   0   2 2 3 
   3   1   3 8 5 4 
   3   5   2 6 4 
   3   3   3 11 9 7 
   4   7   2 11 7 
   1   4   2 10 7 
   7   3   5 24 18 16 13 12 
   7   1   4 24 18 13 12 
   9   3   3 24 18 13 
   4   2   3 24 15 14 
   5   3   2 18 12 
   5   5   3 21 19 15 
   7   6   1 14 
   3   4   5 25 22 21 20 19 
   4   2   3 25 22 17 
   1   7   3 25 21 17 
   1   8   2 26 20 
   6   7   1 19 
   5   3   3 29 28 26 
   8   3   1 23 
   7   3   1 23 
   3   6   1 23 
   2   5   3 29 28 27 
   8   6   3 29 28 27 
   7   2   2 28 27 
   6   2   2 30 27 
   1   4   1 31 
   4   4   1 30 
   6   2   1 30 
   5   4   1 32
   4   5   1 32
   0   0   0 
